certificates/rado_a13_c292_N52.cnf
c Rad2 upper bound instance: x1 + 13*x2 - x3 = 292, interval [1,52]
p cnf 52 414
1 8 23 0
-1 -8 -23 0
1 21 24 0
-1 -21 -24 0
1 25 34 0
-1 -25 -34 0
1 26 47 0
-1 -26 -47 0
2 9 23 0
-2 -9 -23 0
2 22 24 0
-2 -22 -24 0
2 25 35 0
-2 -25 -35 0
2 26 48 0
-2 -26 -48 0
3 10 23 0
-3 -10 -23 0
3 23 24 0
-3 -23 -24 0
3 25 36 0
-3 -25 -36 0
3 26 49 0
-3 -26 -49 0
4 11 23 0
-4 -11 -23 0
4 24 0
-4 -24 0
4 25 37 0
-4 -25 -37 0
4 26 50 0
-4 -26 -50 0
5 12 23 0
-5 -12 -23 0
5 24 25 0
-5 -24 -25 0
5 25 38 0
-5 -25 -38 0
5 26 51 0
-5 -26 -51 0
6 13 23 0
-6 -13 -23 0
6 24 26 0
-6 -24 -26 0
6 25 39 0
-6 -25 -39 0
6 26 52 0
-6 -26 -52 0
1 7 22 0
-1 -7 -22 0
7 14 23 0
-7 -14 -23 0
7 24 27 0
-7 -24 -27 0
7 25 40 0
-7 -25 -40 0
2 8 22 0
-2 -8 -22 0
8 15 23 0
-8 -15 -23 0
8 24 28 0
-8 -24 -28 0
8 25 41 0
-8 -25 -41 0
3 9 22 0
-3 -9 -22 0
9 16 23 0
-9 -16 -23 0
9 24 29 0
-9 -24 -29 0
9 25 42 0
-9 -25 -42 0
4 10 22 0
-4 -10 -22 0
10 17 23 0
-10 -17 -23 0
10 24 30 0
-10 -24 -30 0
10 25 43 0
-10 -25 -43 0
5 11 22 0
-5 -11 -22 0
11 18 23 0
-11 -18 -23 0
11 24 31 0
-11 -24 -31 0
11 25 44 0
-11 -25 -44 0
6 12 22 0
-6 -12 -22 0
12 19 23 0
-12 -19 -23 0
12 24 32 0
-12 -24 -32 0
12 25 45 0
-12 -25 -45 0
7 13 22 0
-7 -13 -22 0
13 20 23 0
-13 -20 -23 0
13 24 33 0
-13 -24 -33 0
13 25 46 0
-13 -25 -46 0
8 14 22 0
-8 -14 -22 0
14 21 23 0
-14 -21 -23 0
14 24 34 0
-14 -24 -34 0
14 25 47 0
-14 -25 -47 0
9 15 22 0
-9 -15 -22 0
15 22 23 0
-15 -22 -23 0
15 24 35 0
-15 -24 -35 0
15 25 48 0
-15 -25 -48 0
10 16 22 0
-10 -16 -22 0
16 23 0
-16 -23 0
16 24 36 0
-16 -24 -36 0
16 25 49 0
-16 -25 -49 0
11 17 22 0
-11 -17 -22 0
17 23 24 0
-17 -23 -24 0
17 24 37 0
-17 -24 -37 0
17 25 50 0
-17 -25 -50 0
12 18 22 0
-12 -18 -22 0
18 23 25 0
-18 -23 -25 0
18 24 38 0
-18 -24 -38 0
18 25 51 0
-18 -25 -51 0
13 19 22 0
-13 -19 -22 0
19 23 26 0
-19 -23 -26 0
19 24 39 0
-19 -24 -39 0
19 25 52 0
-19 -25 -52 0
1 20 21 0
-1 -20 -21 0
14 20 22 0
-14 -20 -22 0
20 23 27 0
-20 -23 -27 0
20 24 40 0
-20 -24 -40 0
2 21 0
-2 -21 0
15 21 22 0
-15 -21 -22 0
21 23 28 0
-21 -23 -28 0
21 24 41 0
-21 -24 -41 0
3 21 22 0
-3 -21 -22 0
16 22 0
-16 -22 0
22 23 29 0
-22 -23 -29 0
22 24 42 0
-22 -24 -42 0
4 21 23 0
-4 -21 -23 0
17 22 23 0
-17 -22 -23 0
23 30 0
-23 -30 0
23 24 43 0
-23 -24 -43 0
5 21 24 0
-5 -21 -24 0
18 22 24 0
-18 -22 -24 0
23 24 31 0
-23 -24 -31 0
24 44 0
-24 -44 0
6 21 25 0
-6 -21 -25 0
19 22 25 0
-19 -22 -25 0
23 25 32 0
-23 -25 -32 0
24 25 45 0
-24 -25 -45 0
7 21 26 0
-7 -21 -26 0
20 22 26 0
-20 -22 -26 0
23 26 33 0
-23 -26 -33 0
24 26 46 0
-24 -26 -46 0
8 21 27 0
-8 -21 -27 0
21 22 27 0
-21 -22 -27 0
23 27 34 0
-23 -27 -34 0
24 27 47 0
-24 -27 -47 0
9 21 28 0
-9 -21 -28 0
22 28 0
-22 -28 0
23 28 35 0
-23 -28 -35 0
24 28 48 0
-24 -28 -48 0
10 21 29 0
-10 -21 -29 0
23 29 36 0
-23 -29 -36 0
24 29 49 0
-24 -29 -49 0
11 21 30 0
-11 -21 -30 0
22 24 30 0
-22 -24 -30 0
23 30 37 0
-23 -30 -37 0
24 30 50 0
-24 -30 -50 0
12 21 31 0
-12 -21 -31 0
22 25 31 0
-22 -25 -31 0
23 31 38 0
-23 -31 -38 0
24 31 51 0
-24 -31 -51 0
13 21 32 0
-13 -21 -32 0
22 26 32 0
-22 -26 -32 0
23 32 39 0
-23 -32 -39 0
24 32 52 0
-24 -32 -52 0
1 20 33 0
-1 -20 -33 0
14 21 33 0
-14 -21 -33 0
22 27 33 0
-22 -27 -33 0
23 33 40 0
-23 -33 -40 0
2 20 34 0
-2 -20 -34 0
15 21 34 0
-15 -21 -34 0
22 28 34 0
-22 -28 -34 0
23 34 41 0
-23 -34 -41 0
3 20 35 0
-3 -20 -35 0
16 21 35 0
-16 -21 -35 0
22 29 35 0
-22 -29 -35 0
23 35 42 0
-23 -35 -42 0
4 20 36 0
-4 -20 -36 0
17 21 36 0
-17 -21 -36 0
22 30 36 0
-22 -30 -36 0
23 36 43 0
-23 -36 -43 0
5 20 37 0
-5 -20 -37 0
18 21 37 0
-18 -21 -37 0
22 31 37 0
-22 -31 -37 0
23 37 44 0
-23 -37 -44 0
6 20 38 0
-6 -20 -38 0
19 21 38 0
-19 -21 -38 0
22 32 38 0
-22 -32 -38 0
23 38 45 0
-23 -38 -45 0
7 20 39 0
-7 -20 -39 0
20 21 39 0
-20 -21 -39 0
22 33 39 0
-22 -33 -39 0
23 39 46 0
-23 -39 -46 0
8 20 40 0
-8 -20 -40 0
21 40 0
-21 -40 0
22 34 40 0
-22 -34 -40 0
23 40 47 0
-23 -40 -47 0
9 20 41 0
-9 -20 -41 0
21 22 41 0
-21 -22 -41 0
22 35 41 0
-22 -35 -41 0
23 41 48 0
-23 -41 -48 0
10 20 42 0
-10 -20 -42 0
21 23 42 0
-21 -23 -42 0
22 36 42 0
-22 -36 -42 0
23 42 49 0
-23 -42 -49 0
11 20 43 0
-11 -20 -43 0
21 24 43 0
-21 -24 -43 0
22 37 43 0
-22 -37 -43 0
23 43 50 0
-23 -43 -50 0
12 20 44 0
-12 -20 -44 0
21 25 44 0
-21 -25 -44 0
22 38 44 0
-22 -38 -44 0
23 44 51 0
-23 -44 -51 0
13 20 45 0
-13 -20 -45 0
21 26 45 0
-21 -26 -45 0
22 39 45 0
-22 -39 -45 0
23 45 52 0
-23 -45 -52 0
1 19 46 0
-1 -19 -46 0
14 20 46 0
-14 -20 -46 0
21 27 46 0
-21 -27 -46 0
22 40 46 0
-22 -40 -46 0
2 19 47 0
-2 -19 -47 0
15 20 47 0
-15 -20 -47 0
21 28 47 0
-21 -28 -47 0
22 41 47 0
-22 -41 -47 0
3 19 48 0
-3 -19 -48 0
16 20 48 0
-16 -20 -48 0
21 29 48 0
-21 -29 -48 0
22 42 48 0
-22 -42 -48 0
4 19 49 0
-4 -19 -49 0
17 20 49 0
-17 -20 -49 0
21 30 49 0
-21 -30 -49 0
22 43 49 0
-22 -43 -49 0
5 19 50 0
-5 -19 -50 0
18 20 50 0
-18 -20 -50 0
21 31 50 0
-21 -31 -50 0
22 44 50 0
-22 -44 -50 0
6 19 51 0
-6 -19 -51 0
19 20 51 0
-19 -20 -51 0
21 32 51 0
-21 -32 -51 0
22 45 51 0
-22 -45 -51 0
7 19 52 0
-7 -19 -52 0
20 52 0
-20 -52 0
21 33 52 0
-21 -33 -52 0
22 46 52 0
-22 -46 -52 0
