certificates/rado_a13_c292_N52.drat
22 -48 -49 20 0
-22 -50 -52 0
-49 22 20 0
d 22 -48 -49 20 0
-50 -52 0
d -22 -50 -52 0
23 -51 -52 0
-51 -52 0
d 23 -51 -52 0
-19 -52 0
d -19 -25 -52 0
-52 0
20 0
49 25 0
d 16 49 25 0
50 25 0
d 17 50 25 0
51 25 0
d 18 51 25 0
25 0
23 51 0
-23 50 0
23 50 0
d 23 43 50 0
50 0
-18 0
-17 0
-21 -7 0
d -21 -26 -7 0
-7 0
19 0
-22 0
-51 0
-5 0
16 0
28 0
46 0
45 0
23 0
12 0
24 0
11 0
1 0
13 0
26 0
0
